
Gurobi 11.0.3 (linux64) logging started Fri Apr 17 02:46:29 2026

Set parameter LogFile to value "tree/results/fish/fish_depth-4_run-4/Full MIP/LogFile_FullModel.txt"
Gurobi Optimizer version 11.0.3 build v11.0.3rc0 (linux64 - "CentOS Linux 7 (Core)")

CPU model: Intel(R) Xeon(R) Platinum 8260 CPU @ 2.40GHz, instruction set [SSE2|AVX|AVX2|AVX512]
Thread count: 96 physical cores, 192 logical processors, using up to 32 threads

Optimize a model with 636812 rows, 391978 columns and 3140052 nonzeros
Model fingerprint: 0xbecaf1dd
Model has 48960 general constraints
Variable types: 244954 continuous, 147024 integer (147024 binary)
Coefficient statistics:
  Matrix range     [3e-04, 1e+04]
  Objective range  [3e-04, 1e+04]
  Bounds range     [1e+00, 3e+03]
  RHS range        [1e-04, 3e+03]

User MIP start produced solution with objective -82799.2 (1.70s)
Loaded user MIP start with objective -82799.2
Processed MIP start in 2.41 seconds (0.35 work units)

Presolve removed 195856 rows and 195840 columns (presolve time = 5s) ...
Presolve added 48944 rows and 195840 columns
Presolve time: 9.44s
Presolved: 685756 rows, 587818 columns, 3532980 nonzeros
Presolved model has 195840 SOS constraint(s)
Variable types: 244954 continuous, 342864 integer (342864 binary)

Deterministic concurrent LP optimizer: primal simplex, dual simplex, and barrier
Showing barrier log only...

Root relaxation presolved: 685756 rows, 587818 columns, 3532980 nonzeros

Root barrier log...

Ordering time: 0.32s

Barrier statistics:
 Dense cols : 60
 AA' NZ     : 3.697e+06
 Factor NZ  : 1.244e+07 (roughly 600 MB of memory)
 Factor Ops : 2.452e+08 (less than 1 second per iteration)
 Threads    : 30

                  Objective                Residual
Iter       Primal          Dual         Primal    Dual     Compl     Time
   0  -1.12691743e+05  4.70915335e+09  9.00e+03 5.68e-14  7.72e+05    22s
   1  -7.20001755e+04  7.95865928e+09  3.59e+03 2.03e+01  2.54e+05    23s
   2  -4.23888875e+04  7.88636620e+09  3.57e+02 5.33e+00  3.03e+04    24s
   3  -2.11620321e+04  4.58243010e+09  3.53e+01 6.02e-01  5.15e+03    26s
   4  -2.41052272e+03  6.97740051e+08  3.50e+00 6.01e-02  6.07e+02    28s
   5  -2.40713742e+02  8.36001225e+07  3.49e-01 6.01e-03  6.72e+01    29s
   6  -2.37327692e+01  8.63595155e+06  3.53e-02 6.01e-04  6.74e+00    30s
   7  -2.03401816e+00  8.71682142e+05  3.84e-03 6.06e-05  6.78e-01    30s
   8   1.42835435e-01  9.60646041e+04  6.19e-04 6.68e-06  7.47e-02    31s
   9   5.12116756e-01  1.87160156e+04  6.13e-05 1.29e-06  1.46e-02    33s
  10   9.51327810e-01  4.77865803e+03  2.69e-05 2.69e-07  3.71e-03    34s
  11   7.86092694e-01  5.17441217e+02  2.67e-06 2.87e-08  4.01e-04    35s
  12   9.78609272e-01  5.41604710e+01  2.68e-07 2.87e-09  4.13e-05    37s
  13   9.97860398e-01  6.36454982e+00  2.65e-08 2.87e-10  4.16e-06    38s

Barrier performed 13 iterations in 37.80 seconds (20.29 work units)
Barrier solve interrupted - model solved by another algorithm

Concurrent spin time: 9.59s (can be avoided by choosing Method=3)

Solved with primal simplex

Root relaxation: objective 1.000000e+00, 49605 iterations, 22.04 seconds (8.60 work units)
Total elapsed time = 69.89s (DegenMoves)
Total elapsed time = 71.32s (DegenMoves)

    Nodes    |    Current Node    |     Objective Bounds      |     Work
 Expl Unexpl |  Obj  Depth IntInf | Incumbent    BestBd   Gap | It/Node Time

     0     0    1.00000    0 41177 -82799.218    1.00000   100%     -   71s
     0     2    1.00000    0 41177 -82799.218    1.00000   100%     -  278s
     1     4    1.00000    1 35505 -82799.218    1.00000   100% 13197  581s
     3     8    1.00000    2 30608 -82799.218    1.00000   100%  4956  799s
     7    16    1.00000    3 39722 -82799.218    1.00000   100%  3579 1033s
    15    32    1.00000    4 41762 -82799.218    1.00000   100%  2704 1172s
    31    64    1.00000    5 41755 -82799.218    1.00000   100%  2279 1519s
    63    96    1.00000    6 41751 -82799.218    1.00000   100%  1274 3602s

Explored 95 nodes (217232 simplex iterations) in 3605.99 seconds (4723.79 work units)
Thread count was 32 (of 192 available processors)

Solution count 1: -82799.2 

Time limit reached
Best objective -8.279921830065e+04, best bound 1.000000000000e+00, gap 100.0012%

User-callback calls 169064, time in user-callback 2.37 sec
